TCS_Benchmarks/redos_fix/snort3_output_distinct_4981_4980_0_0.smt2
(set-logic QF_S)
(declare-const x String)
(assert (str.in.re x (re.inter  (re.++ (re.* (re.comp  (str.to_re "\u{0A}")) )  (re.++  (re.++ (re.comp  (re.union  (str.to_re "\u{0A}") (re.union  (str.to.re "\u{3f}")  (str.to.re "\u{26}")))) (re.comp  (re.union  (str.to_re "\u{0A}") (re.union  (str.to.re "\u{3f}")  (str.to.re "\u{26}"))))) (re.*  (re.++ (re.comp  (re.union  (str.to_re "\u{0A}") (re.union  (str.to.re "\u{3f}")  (str.to.re "\u{26}")))) (re.comp  (re.union  (str.to_re "\u{0A}") (re.union  (str.to.re "\u{3f}")  (str.to.re "\u{26}"))))) )))  (re.++ (re.* (re.comp  (str.to_re "\u{0A}")) ) (re.++  (re.++  (str.to.re "\u{3f}") (re.++  (re.union  (str.to.re "\u{75}")  (str.to.re "\u{55}")) (re.++  (re.union  (str.to.re "\u{73}")  (str.to.re "\u{53}")) (re.++  (re.union  (str.to.re "\u{65}")  (str.to.re "\u{45}")) (re.++  (re.union  (str.to.re "\u{6c}")  (str.to.re "\u{4c}")) (re.++  (re.union  (str.to.re "\u{61}")  (str.to.re "\u{41}")) (re.++  (re.union  (str.to.re "\u{6e}")  (str.to.re "\u{4e}")) (re.++  (re.union  (str.to.re "\u{67}")  (str.to.re "\u{47}"))  (str.to.re "\u{3d}")))))))))  (re.++  (re.++ (re.comp  (re.union  (str.to_re "\u{0A}") (re.union  (str.to.re "\u{3f}")  (str.to.re "\u{26}")))) (re.comp  (re.union  (str.to_re "\u{0A}") (re.union  (str.to.re "\u{3f}")  (str.to.re "\u{26}"))))) (re.*  (re.++ (re.comp  (re.union  (str.to_re "\u{0A}") (re.union  (str.to.re "\u{3f}")  (str.to.re "\u{26}")))) (re.comp  (re.union  (str.to_re "\u{0A}") (re.union  (str.to.re "\u{3f}")  (str.to.re "\u{26}"))))) )))) )))
(check-sat)
(get-model)