TCS_Benchmarks/redos_fix/snort3_output_distinct_4981_4980_0_0.txt
([^\n]*)([^\n\?&]{2,})
([^\n]*)(\?[uU][sS][eE][lL][aA][nN][gG]=)([^\n\?&]{2,})